Function: get_partitions took 3.075599670410156e-05 seconds
Function: map_flows_partitions took 7.867813110351562e-06 seconds
Building model with:
4 devices, 10 partitions and 1 flows
Using license file /home/anup/gurobi.lic
Academic license - for non-commercial use only
Function: MIP.add_frac_mem_var took 0.0004038810729980469 seconds
Function: MIP.add_coverage_constraints took 0.00032806396484375 seconds
Function: MIP.add_accuracy_constraints took 0.0008759498596191406 seconds
Function: MIP.add_capacity_constraints took 0.0006151199340820312 seconds
Changed value of parameter TimeLimit to 120.0
   Prev: inf  Min: 0.0  Max: inf  Default: inf
Changed value of parameter NonConvex to 2
   Prev: -1  Min: -1  Max: 2  Default: -1
Parameter NonConvex unchanged
   Value: 2  Min: -1  Max: 2  Default: -1
--------------------------------------------------
Starting model update
Model update took: 3.409385681152344e-05 s
--------------------------------------------------
Starting model optimize
Gurobi Optimizer version 9.0.0 build v9.0.0rc2 (linux64)
Optimize a model with 69 rows, 112 columns and 239 nonzeros
Model fingerprint: 0x43cbb7d0
Model has 6 quadratic constraints
Model has 5 general constraints
Variable types: 68 continuous, 44 integer (40 binary)
Coefficient statistics:
  Matrix range     [1e-04, 8e+03]
  QMatrix range    [1e+00, 1e+00]
  QLMatrix range   [1e+00, 1e+00]
  Objective range  [1e+00, 1e+00]
  Bounds range     [1e+00, 3e+04]
  RHS range        [1e+00, 2e+01]

---------------------------------------------------------------------------
Multi-objectives: starting optimization with 2 objectives ... 
---------------------------------------------------------------------------

Multi-objectives: applying initial presolve ...
---------------------------------------------------------------------------

Presolve removed 36 rows and 32 columns
Presolve time: 0.00s
Presolved: 57 rows and 81 columns
---------------------------------------------------------------------------

Multi-objectives: optimize objective 1 (ns) ...
---------------------------------------------------------------------------

Presolve removed 11 rows and 24 columns
Presolve time: 0.00s
Presolved: 70 rows, 58 columns, 202 nonzeros
Presolved model has 6 SOS constraint(s)
Presolved model has 6 bilinear constraint(s)
Variable types: 30 continuous, 28 integer (18 binary)

Root relaxation: objective 1.020408e+01, 26 iterations, 0.00 seconds

    Nodes    |    Current Node    |     Objective Bounds      |     Work
 Expl Unexpl |  Obj  Depth IntInf | Incumbent    BestBd   Gap | It/Node Time

     0     0   10.20408    0    7          -   10.20408      -     -    0s
     0     0   10.20408    0    8          -   10.20408      -     -    0s
     0     0   10.20408    0    4          -   10.20408      -     -    0s
     0     0   10.20408    0    9          -   10.20408      -     -    0s
     0     0   10.20408    0   13          -   10.20408      -     -    0s
     0     0   10.20408    0   13          -   10.20408      -     -    0s
     0     2   10.26655    0   13          -   10.26655      -     -    0s
H    3     6                      28.5714286   10.26655  64.1%   7.0    0s
H    5     6                      17.8571429   10.26655  42.5%   4.6    0s
*   38    18               8      14.2857143   12.50000  12.5%   2.5    0s
*   46    12               9      13.0958659   12.96255  1.02%   2.4    0s

Cutting planes:
  Gomory: 2
  Cover: 2
  Implied bound: 1
  Clique: 2
  MIR: 2
  RLT: 5
  Relax-and-lift: 3

Explored 66 nodes (177 simplex iterations) in 0.03 seconds
Thread count was 8 (of 8 available processors)

Solution count 4: 13.0959 14.2857 17.8571 28.5714 

Optimal solution found (tolerance 1.00e-04)
Best objective 1.309586592709e+01, best bound 1.309586592709e+01, gap 0.0000%
---------------------------------------------------------------------------

Multi-objectives: optimize objective 2 (res) ...
---------------------------------------------------------------------------


Loaded user MIP start with objective 167.14

Presolve removed 6 rows and 10 columns
Presolve time: 0.00s
Presolved: 76 rows, 71 columns, 251 nonzeros
Presolved model has 6 bilinear constraint(s)
Found heuristic solution: objective 155.1254759
Variable types: 29 continuous, 42 integer (36 binary)

Root relaxation: objective 1.016127e+02, 55 iterations, 0.00 seconds

    Nodes    |    Current Node    |     Objective Bounds      |     Work
 Expl Unexpl |  Obj  Depth IntInf | Incumbent    BestBd   Gap | It/Node Time

     0     0  101.61268    0   10  155.12548  101.61268  34.5%     -    0s
     0     0  101.61268    0   12  155.12548  101.61268  34.5%     -    0s
     0     0  101.61268    0   12  155.12548  101.61268  34.5%     -    0s
     0     0  101.71489    0   13  155.12548  101.71489  34.4%     -    0s
     0     0  102.33526    0   17  155.12548  102.33526  34.0%     -    0s
     0     0  103.86890    0   23  155.12548  103.86890  33.0%     -    0s
     0     0  103.90469    0   23  155.12548  103.90469  33.0%     -    0s
     0     0  107.23648    0   14  155.12548  107.23648  30.9%     -    0s
     0     0  109.25770    0   16  155.12548  109.25770  29.6%     -    0s
     0     0  116.52201    0   10  155.12548  116.52201  24.9%     -    0s
     0     0  116.52201    0    9  155.12548  116.52201  24.9%     -    0s
     0     0  116.52201    0   12  155.12548  116.52201  24.9%     -    0s
     0     0  116.52201    0   12  155.12548  116.52201  24.9%     -    0s
     0     0  116.52201    0   12  155.12548  116.52201  24.9%     -    0s
     0     0  116.52201    0   12  155.12548  116.52201  24.9%     -    0s
     0     0  116.52201    0   12  155.12548  116.52201  24.9%     -    0s
     0     0  126.28666    0    7  155.12548  126.28666  18.6%     -    0s
H    0     0                     135.1254759  126.28666  6.54%     -    0s
     0     0  126.47225    0    9  135.12548  126.47225  6.40%     -    0s
     0     0  128.45881    0    9  135.12548  128.45881  4.93%     -    0s
     0     0  132.02893    0   14  135.12548  132.02893  2.29%     -    0s
     0     0  132.02893    0   16  135.12548  132.02893  2.29%     -    0s
     0     0  132.36702    0   11  135.12548  132.36702  2.04%     -    0s
     0     0  132.36702    0   14  135.12548  132.36702  2.04%     -    0s
     0     0  132.50044    0   17  135.12548  132.50044  1.94%     -    0s
     0     0  132.50044    0   17  135.12548  132.50044  1.94%     -    0s
     0     0  132.50044    0   17  135.12548  132.50044  1.94%     -    0s
     0     0  132.50044    0   15  135.12548  132.50044  1.94%     -    0s
     0     0  132.50044    0   17  135.12548  132.50044  1.94%     -    0s
     0     0  132.50044    0   17  135.12548  132.50044  1.94%     -    0s
     0     0  134.64787    0   13  135.12548  134.64787  0.35%     -    0s
     0     0     cutoff    0       135.12548  135.12548  0.00%     -    0s

Cutting planes:
  MIR: 5

Explored 1 nodes (305 simplex iterations) in 0.10 seconds
Thread count was 8 (of 8 available processors)

Solution count 3: 135.125 155.125 167.14 

Optimal solution found (tolerance 1.00e-04)
Best objective 1.351254758835e+02, best bound 1.351254758835e+02, gap 0.0000%

---------------------------------------------------------------------------
Multi-objectives: solved in 0.10 seconds, solution count 6

Model optimize took: 0.09555220603942871 seconds
--------------------------------------------------

Solution quality statistics for model Netmon :
  Maximum violation:
    Bound       : 0.00000000e+00
    Constraint  : 2.54658516e-11 (mem_tot_CPU_1)
    Integrality : 0.00000000e+00

Throughput: 76.35997539739435 Mpps, ns per packet: 13.095865927087807
Resources: 135.1254758834839
Used Cores: 12.0, Total CPUS: 2, Switch Memory: 492.703125

Sketch (0) (cm: eps0: 7.500000000000001e-05, del0: 0.05, min_mem: 141.578125)
Par: 1, Rows: 1
(1.000,3)    (-0.000,0)    (-0.000,1)    (0.000,2)    
Total frac: 1.000
Par: 2, Rows: 1
(1.000,2)    (-0.000,1)    (-0.000,0)    (0.000,3)    
Total frac: 1.000
Par: 3, Rows: 1
(-0.000,1)    (0.000,2)    (1.000,3)    (-0.000,0)    
Total frac: 1.000

Sketch (1) (cm: eps0: 1.25e-06, del0: 0.05, min_mem: 8494.6328125)
Par: 1, Rows: 1
(-0.000,1)    (1.000,0)    (0.000,3)    (0.000,2)    
Total frac: 1.000
Par: 2, Rows: 1
(0.000,2)    (1.000,0)    (-0.000,1)    (0.000,3)    
Total frac: 1.000
Par: 3, Rows: 1
(0.000,2)    (1.000,1)    (-0.000,0)    (0.000,3)    
Total frac: 1.000

Sketch (2) (cm: eps0: 0.000625, del0: 0.025, min_mem: 16.9921875)
Par: 1, Rows: 1
(-0.000,1)    (1.000,3)    (0.000,2)    (-0.000,0)    
Total frac: 1.000
Par: 2, Rows: 1
(-0.000,0)    (0.000,3)    (1.000,2)    (-0.000,1)    
Total frac: 1.000
Par: 3, Rows: 1
(0.000,2)    (-0.000,0)    (1.000,3)    (-0.000,1)    
Total frac: 1.000
Par: 4, Rows: 1
(1.000,2)    (0.000,3)    (-0.000,1)    (-0.000,0)    
Total frac: 1.000

Device (0) CPU_1:
cores_sketch: 3.0, cores_dpdk: 4.0
Rows total: 2.0
Mem total: 16989.265624999975
Throughput: 76.35997539739435

Device (1) CPU_2:
cores_sketch: 1.0, cores_dpdk: 4.0
Rows total: 1.0
Mem total: 8494.632812499998
Throughput: 80.00000000000009

Device (2) P4_1:
Rows total: 3.0
Mem total: 175.5625
Throughput: 148.0

Device (3) P4_2:
Rows total: 4.0
Mem total: 317.140625
Throughput: 148.0
--------------------------------------------------
Function: MIP.solve took 0.10560417175292969 seconds
Function: solve took 0.1059732437133789 seconds
